p tw 121 18151 2 
1 3 
1 4 
1 5 
1 6 
1 7 
1 8 
1 9 
1 10 
1 11 
1 12 
1 17 
1 23 
1 26 
1 34 
1 42 
1 45 
1 51 
1 56 
1 66 
1 67 
1 76 
1 78 
1 82 
1 89 
1 96 
1 100 
1 102 
1 111 
1 112 
2 3 
2 4 
2 5 
2 6 
2 7 
2 8 
2 9 
2 10 
2 11 
2 12 
2 13 
2 24 
2 27 
2 35 
2 37 
2 46 
2 53 
2 57 
2 62 
2 68 
2 74 
2 79 
2 83 
2 90 
2 98 
2 101 
2 110 
2 112 
2 113 
3 4 
3 5 
3 6 
3 7 
3 8 
3 9 
3 10 
3 11 
3 14 
3 21 
3 25 
3 31 
3 36 
3 41 
3 47 
3 49 
3 58 
3 61 
3 69 
3 73 
3 80 
3 81 
3 91 
3 99 
3 101 
3 102 
3 111 
3 113 
4 5 
4 6 
4 7 
4 8 
4 9 
4 10 
4 11 
4 15 
4 22 
4 25 
4 26 
4 35 
4 37 
4 45 
4 48 
4 59 
4 63 
4 70 
4 72 
4 81 
4 87 
4 92 
4 93 
4 103 
4 106 
4 114 
4 119 
5 6 
5 7 
5 8 
5 9 
5 10 
5 11 
5 14 
5 16 
5 27 
5 33 
5 38 
5 40 
5 48 
5 49 
5 60 
5 65 
5 71 
5 75 
5 78 
5 82 
5 90 
5 93 
5 104 
5 105 
5 115 
5 118 
6 7 
6 8 
6 9 
6 10 
6 11 
6 17 
6 20 
6 28 
6 30 
6 38 
6 39 
6 50 
6 55 
6 57 
6 61 
6 70 
6 72 
6 80 
6 83 
6 94 
6 95 
6 100 
6 105 
6 116 
6 120 
7 8 
7 9 
7 10 
7 11 
7 15 
7 18 
7 29 
7 32 
7 36 
7 40 
7 46 
7 51 
7 56 
7 62 
7 73 
7 77 
7 84 
7 86 
7 94 
7 95 
7 106 
7 107 
7 115 
7 117 
8 9 
8 10 
8 11 
8 16 
8 19 
8 29 
8 30 
8 41 
8 43 
8 50 
8 52 
8 59 
8 63 
8 67 
8 74 
8 79 
8 85 
8 91 
8 96 
8 107 
8 108 
8 118 
8 121 
9 10 
9 11 
9 19 
9 20 
9 24 
9 31 
9 39 
9 42 
9 53 
9 54 
9 58 
9 64 
9 71 
9 75 
9 86 
9 88 
9 89 
9 97 
9 103 
9 108 
9 117 
9 119 
10 11 
10 13 
10 21 
10 23 
10 32 
10 43 
10 44 
10 52 
10 54 
10 64 
10 65 
10 69 
10 76 
10 84 
10 87 
10 92 
10 98 
10 104 
10 109 
10 116 
10 120 
11 18 
11 22 
11 28 
11 33 
11 34 
11 44 
11 47 
11 55 
11 60 
11 66 
11 68 
11 77 
11 85 
11 88 
11 97 
11 99 
11 109 
11 110 
11 114 
11 121 
12 13 
12 14 
12 15 
12 16 
12 17 
12 18 
12 19 
12 20 
12 21 
12 22 
12 23 
12 27 
12 34 
12 37 
12 45 
12 53 
12 56 
12 62 
12 67 
12 74 
12 78 
12 83 
12 89 
12 98 
12 100 
12 110 
12 111 
12 113 
13 14 
13 15 
13 16 
13 17 
13 18 
13 19 
13 20 
13 21 
13 22 
13 23 
13 24 
13 35 
13 44 
13 46 
13 52 
13 57 
13 64 
13 68 
13 69 
13 79 
13 84 
13 90 
13 92 
13 101 
13 104 
13 112 
13 116 
14 15 
14 16 
14 17 
14 18 
14 19 
14 20 
14 21 
14 22 
14 25 
14 33 
14 36 
14 40 
14 47 
14 48 
14 58 
14 65 
14 69 
14 75 
14 78 
14 80 
14 90 
14 91 
14 102 
14 105 
14 113 
14 118 
15 16 
15 17 
15 18 
15 19 
15 20 
15 21 
15 22 
15 26 
15 32 
15 36 
15 37 
15 46 
15 48 
15 56 
15 59 
15 70 
15 77 
15 81 
15 86 
15 92 
15 94 
15 103 
15 107 
15 114 
15 115 
16 17 
16 18 
16 19 
16 20 
16 21 
16 22 
16 27 
16 29 
16 38 
16 43 
16 49 
16 50 
16 59 
16 60 
16 67 
16 71 
16 79 
16 82 
16 91 
16 93 
16 104 
16 108 
16 115 
16 121 
17 18 
17 19 
17 20 
17 21 
17 22 
17 26 
17 28 
17 39 
17 42 
17 50 
17 51 
17 61 
17 66 
17 72 
17 76 
17 82 
17 83 
17 94 
17 96 
17 102 
17 105 
17 112 
17 116 
18 19 
18 20 
18 21 
18 22 
18 28 
18 29 
18 34 
18 40 
18 47 
18 51 
18 60 
18 62 
18 68 
18 73 
18 84 
18 85 
18 95 
18 97 
18 106 
18 109 
18 114 
18 117 
19 20 
19 21 
19 22 
19 24 
19 30 
19 39 
19 41 
19 52 
19 54 
19 58 
19 63 
19 71 
19 74 
19 85 
19 88 
19 89 
19 96 
19 103 
19 107 
19 117 
19 118 
20 21 
20 22 
20 30 
20 31 
20 38 
20 42 
20 53 
20 55 
20 57 
20 64 
20 70 
20 75 
20 80 
20 86 
20 95 
20 97 
20 100 
20 108 
20 119 
20 120 
21 22 
21 31 
21 32 
21 41 
21 43 
21 49 
21 54 
21 61 
21 65 
21 73 
21 76 
21 81 
21 87 
21 98 
21 99 
21 101 
21 109 
21 111 
21 120 
22 25 
22 33 
22 35 
22 44 
22 45 
22 55 
22 63 
22 66 
22 72 
22 77 
22 87 
22 88 
22 93 
22 99 
22 106 
22 110 
22 119 
22 121 
23 24 
23 25 
23 26 
23 27 
23 28 
23 29 
23 30 
23 31 
23 32 
23 33 
23 34 
23 44 
23 45 
23 52 
23 56 
23 64 
23 67 
23 69 
23 78 
23 84 
23 89 
23 92 
23 100 
23 104 
23 111 
23 116 
24 25 
24 26 
24 27 
24 28 
24 29 
24 30 
24 31 
24 32 
24 33 
24 35 
24 39 
24 46 
24 54 
24 57 
24 58 
24 68 
24 71 
24 79 
24 88 
24 89 
24 90 
24 101 
24 103 
24 112 
24 117 
25 26 
25 27 
25 28 
25 29 
25 30 
25 31 
25 32 
25 33 
25 35 
25 36 
25 45 
25 47 
25 58 
25 63 
25 69 
25 72 
25 80 
25 87 
25 91 
25 93 
25 102 
25 106 
25 113 
25 119 
26 27 
26 28 
26 29 
26 30 
26 31 
26 32 
26 33 
26 37 
26 42 
26 48 
26 51 
26 59 
26 66 
26 70 
26 76 
26 81 
26 82 
26 92 
26 96 
26 102 
26 103 
26 112 
26 114 
27 28 
27 29 
27 30 
27 31 
27 32 
27 33 
27 37 
27 38 
27 49 
27 53 
27 60 
27 62 
27 71 
27 74 
27 82 
27 83 
27 93 
27 98 
27 104 
27 110 
27 113 
27 115 
28 29 
28 30 
28 31 
28 32 
28 33 
28 34 
28 39 
28 47 
28 50 
28 60 
28 61 
28 68 
28 72 
28 83 
28 85 
28 94 
28 97 
28 105 
28 109 
28 114 
28 116 
29 30 
29 31 
29 32 
29 33 
29 40 
29 43 
29 50 
29 51 
29 59 
29 62 
29 67 
29 73 
29 79 
29 84 
29 91 
29 95 
29 106 
29 108 
29 117 
29 121 
30 31 
30 32 
30 33 
30 38 
30 41 
30 52 
30 55 
30 57 
30 63 
30 70 
30 74 
30 80 
30 85 
30 95 
30 96 
30 100 
30 107 
30 118 
30 120 
31 32 
31 33 
31 41 
31 42 
31 49 
31 53 
31 61 
31 64 
31 73 
31 75 
31 81 
31 86 
31 97 
31 99 
31 101 
31 108 
31 111 
31 119 
32 33 
32 36 
32 43 
32 46 
32 54 
32 56 
32 65 
32 76 
32 77 
32 86 
32 87 
32 94 
32 98 
32 107 
32 109 
32 115 
32 120 
33 40 
33 44 
33 48 
33 55 
33 65 
33 66 
33 75 
33 77 
33 78 
33 88 
33 90 
33 99 
33 105 
33 110 
33 118 
33 121 
34 35 
34 36 
34 37 
34 38 
34 39 
34 40 
34 41 
34 42 
34 43 
34 44 
34 45 
34 47 
34 56 
34 60 
34 67 
34 68 
34 78 
34 85 
34 89 
34 97 
34 100 
34 109 
34 111 
34 114 
35 36 
35 37 
35 38 
35 39 
35 40 
35 41 
35 42 
35 43 
35 44 
35 45 
35 46 
35 57 
35 63 
35 68 
35 72 
35 79 
35 87 
35 90 
35 93 
35 101 
35 106 
35 112 
35 119 
36 37 
36 38 
36 39 
36 40 
36 41 
36 42 
36 43 
36 44 
36 46 
36 47 
36 56 
36 58 
36 69 
36 77 
36 80 
36 86 
36 91 
36 94 
36 102 
36 107 
36 113 
36 115 
37 38 
37 39 
37 40 
37 41 
37 42 
37 43 
37 44 
37 48 
37 53 
37 59 
37 62 
37 70 
37 74 
37 81 
37 83 
37 92 
37 98 
37 103 
37 110 
37 113 
37 114 
38 39 
38 40 
38 41 
38 42 
38 43 
38 44 
38 49 
38 55 
38 57 
38 60 
38 70 
38 71 
38 80 
38 82 
38 93 
38 95 
38 100 
38 104 
38 115 
38 120 
39 40 
39 41 
39 42 
39 43 
39 44 
39 50 
39 54 
39 58 
39 61 
39 71 
39 72 
39 83 
39 88 
39 89 
39 94 
39 103 
39 105 
39 116 
39 117 
40 41 
40 42 
40 43 
40 44 
40 48 
40 51 
40 62 
40 65 
40 73 
40 75 
40 78 
40 84 
40 90 
40 95 
40 105 
40 106 
40 117 
40 118 
41 42 
41 43 
41 44 
41 49 
41 52 
41 61 
41 63 
41 73 
41 74 
41 81 
41 85 
41 96 
41 99 
41 101 
41 107 
41 111 
41 118 
42 43 
42 44 
42 51 
42 53 
42 64 
42 66 
42 75 
42 76 
42 82 
42 86 
42 96 
42 97 
42 102 
42 108 
42 112 
42 119 
43 44 
43 50 
43 54 
43 59 
43 65 
43 67 
43 76 
43 79 
43 87 
43 91 
43 98 
43 108 
43 109 
43 120 
43 121 
44 52 
44 55 
44 64 
44 66 
44 69 
44 77 
44 84 
44 88 
44 92 
44 99 
44 104 
44 110 
44 116 
44 121 
45 46 
45 47 
45 48 
45 49 
45 50 
45 51 
45 52 
45 53 
45 54 
45 55 
45 56 
45 63 
45 67 
45 72 
45 78 
45 87 
45 89 
45 93 
45 100 
45 106 
45 111 
45 119 
46 47 
46 48 
46 49 
46 50 
46 51 
46 52 
46 53 
46 54 
46 55 
46 56 
46 57 
46 68 
46 77 
46 79 
46 86 
46 90 
46 94 
46 101 
46 107 
46 112 
46 115 
47 48 
47 49 
47 50 
47 51 
47 52 
47 53 
47 54 
47 55 
47 58 
47 60 
47 68 
47 69 
47 80 
47 85 
47 91 
47 97 
47 102 
47 109 
47 113 
47 114 
48 49 
48 50 
48 51 
48 52 
48 53 
48 54 
48 55 
48 59 
48 65 
48 70 
48 75 
48 78 
48 81 
48 90 
48 92 
48 103 
48 105 
48 114 
48 118 
49 50 
49 51 
49 52 
49 53 
49 54 
49 55 
49 60 
49 61 
49 71 
49 73 
49 81 
49 82 
49 93 
49 99 
49 101 
49 104 
49 111 
49 115 
50 51 
50 52 
50 53 
50 54 
50 55 
50 59 
50 61 
50 67 
50 72 
50 79 
50 83 
50 91 
50 94 
50 105 
50 108 
50 116 
50 121 
51 52 
51 53 
51 54 
51 55 
51 62 
51 66 
51 73 
51 76 
51 82 
51 84 
51 95 
51 96 
51 102 
51 106 
51 112 
51 117 
52 53 
52 54 
52 55 
52 63 
52 64 
52 69 
52 74 
52 84 
52 85 
52 92 
52 96 
52 104 
52 107 
52 116 
52 118 
53 54 
53 55 
53 62 
53 64 
53 74 
53 75 
53 83 
53 86 
53 97 
53 98 
53 108 
53 110 
53 113 
53 119 
54 55 
54 58 
54 65 
54 71 
54 76 
54 87 
54 88 
54 89 
54 98 
54 103 
54 109 
54 117 
54 120 
55 57 
55 66 
55 70 
55 77 
55 80 
55 88 
55 95 
55 99 
55 100 
55 110 
55 120 
55 121 
56 57 
56 58 
56 59 
56 60 
56 61 
56 62 
56 63 
56 64 
56 65 
56 66 
56 67 
56 77 
56 78 
56 86 
56 89 
56 94 
56 100 
56 107 
56 111 
56 115 
57 58 
57 59 
57 60 
57 61 
57 62 
57 63 
57 64 
57 65 
57 66 
57 68 
57 70 
57 79 
57 80 
57 90 
57 95 
57 100 
57 101 
57 112 
57 120 
58 59 
58 60 
58 61 
58 62 
58 63 
58 64 
58 65 
58 66 
58 69 
58 71 
58 80 
58 88 
58 89 
58 91 
58 102 
58 103 
58 113 
58 117 
59 60 
59 61 
59 62 
59 63 
59 64 
59 65 
59 66 
59 67 
59 70 
59 79 
59 81 
59 91 
59 92 
59 103 
59 108 
59 114 
59 121 
60 61 
60 62 
60 63 
60 64 
60 65 
60 66 
60 68 
60 71 
60 82 
60 85 
60 93 
60 97 
60 104 
60 109 
60 114 
60 115 
61 62 
61 63 
61 64 
61 65 
61 66 
61 72 
61 73 
61 81 
61 83 
61 94 
61 99 
61 101 
61 105 
61 111 
61 116 
62 63 
62 64 
62 65 
62 66 
62 73 
62 74 
62 83 
62 84 
62 95 
62 98 
62 106 
62 110 
62 113 
62 117 
63 64 
63 65 
63 66 
63 72 
63 74 
63 85 
63 87 
63 93 
63 96 
63 106 
63 107 
63 118 
63 119 
64 65 
64 66 
64 69 
64 75 
64 84 
64 86 
64 92 
64 97 
64 104 
64 108 
64 116 
64 119 
65 66 
65 75 
65 76 
65 78 
65 87 
65 90 
65 98 
65 105 
65 109 
65 118 
65 120 
66 76 
66 77 
66 82 
66 88 
66 96 
66 99 
66 102 
66 110 
66 112 
66 121 
67 68 
67 69 
67 70 
67 71 
67 72 
67 73 
67 74 
67 75 
67 76 
67 77 
67 78 
67 79 
67 89 
67 91 
67 100 
67 108 
67 111 
67 121 
68 69 
68 70 
68 71 
68 72 
68 73 
68 74 
68 75 
68 76 
68 77 
68 79 
68 85 
68 90 
68 97 
68 101 
68 109 
68 112 
68 114 
69 70 
69 71 
69 72 
69 73 
69 74 
69 75 
69 76 
69 77 
69 80 
69 84 
69 91 
69 92 
69 102 
69 104 
69 113 
69 116 
70 71 
70 72 
70 73 
70 74 
70 75 
70 76 
70 77 
70 80 
70 81 
70 92 
70 95 
70 100 
70 103 
70 114 
70 120 
71 72 
71 73 
71 74 
71 75 
71 76 
71 77 
71 82 
71 88 
71 89 
71 93 
71 103 
71 104 
71 115 
71 117 
72 73 
72 74 
72 75 
72 76 
72 77 
72 83 
72 87 
72 93 
72 94 
72 105 
72 106 
72 116 
72 119 
73 74 
73 75 
73 76 
73 77 
73 81 
73 84 
73 95 
73 99 
73 101 
73 106 
73 111 
73 117 
74 75 
74 76 
74 77 
74 83 
74 85 
74 96 
74 98 
74 107 
74 110 
74 113 
74 118 
75 76 
75 77 
75 78 
75 86 
75 90 
75 97 
75 105 
75 108 
75 118 
75 119 
76 77 
76 82 
76 87 
76 96 
76 98 
76 102 
76 109 
76 112 
76 120 
77 86 
77 88 
77 94 
77 99 
77 107 
77 110 
77 115 
77 121 
78 79 
78 80 
78 81 
78 82 
78 83 
78 84 
78 85 
78 86 
78 87 
78 88 
78 89 
78 90 
78 100 
78 105 
78 111 
78 118 
79 80 
79 81 
79 82 
79 83 
79 84 
79 85 
79 86 
79 87 
79 88 
79 90 
79 91 
79 101 
79 108 
79 112 
79 121 
80 81 
80 82 
80 83 
80 84 
80 85 
80 86 
80 87 
80 88 
80 91 
80 95 
80 100 
80 102 
80 113 
80 120 
81 82 
81 83 
81 84 
81 85 
81 86 
81 87 
81 88 
81 92 
81 99 
81 101 
81 103 
81 111 
81 114 
82 83 
82 84 
82 85 
82 86 
82 87 
82 88 
82 93 
82 96 
82 102 
82 104 
82 112 
82 115 
83 84 
83 85 
83 86 
83 87 
83 88 
83 94 
83 98 
83 105 
83 110 
83 113 
83 116 
84 85 
84 86 
84 87 
84 88 
84 92 
84 95 
84 104 
84 106 
84 116 
84 117 
85 86 
85 87 
85 88 
85 96 
85 97 
85 107 
85 109 
85 114 
85 118 
86 87 
86 88 
86 94 
86 97 
86 107 
86 108 
86 115 
86 119 
87 88 
87 93 
87 98 
87 106 
87 109 
87 119 
87 120 
88 89 
88 99 
88 103 
88 110 
88 117 
88 121 
89 90 
89 91 
89 92 
89 93 
89 94 
89 95 
89 96 
89 97 
89 98 
89 99 
89 100 
89 103 
89 111 
89 117 
90 91 
90 92 
90 93 
90 94 
90 95 
90 96 
90 97 
90 98 
90 99 
90 101 
90 105 
90 112 
90 118 
91 92 
91 93 
91 94 
91 95 
91 96 
91 97 
91 98 
91 99 
91 102 
91 108 
91 113 
91 121 
92 93 
92 94 
92 95 
92 96 
92 97 
92 98 
92 99 
92 103 
92 104 
92 114 
92 116 
93 94 
93 95 
93 96 
93 97 
93 98 
93 99 
93 104 
93 106 
93 115 
93 119 
94 95 
94 96 
94 97 
94 98 
94 99 
94 105 
94 107 
94 115 
94 116 
95 96 
95 97 
95 98 
95 99 
95 100 
95 106 
95 117 
95 120 
96 97 
96 98 
96 99 
96 102 
96 107 
96 112 
96 118 
97 98 
97 99 
97 108 
97 109 
97 114 
97 119 
98 99 
98 109 
98 110 
98 113 
98 120 
99 101 
99 110 
99 111 
99 121 
100 101 
100 102 
100 103 
100 104 
100 105 
100 106 
100 107 
100 108 
100 109 
100 110 
100 111 
100 120 
101 102 
101 103 
101 104 
101 105 
101 106 
101 107 
101 108 
101 109 
101 110 
101 111 
101 112 
102 103 
102 104 
102 105 
102 106 
102 107 
102 108 
102 109 
102 110 
102 112 
102 113 
103 104 
103 105 
103 106 
103 107 
103 108 
103 109 
103 110 
103 114 
103 117 
104 105 
104 106 
104 107 
104 108 
104 109 
104 110 
104 115 
104 116 
105 106 
105 107 
105 108 
105 109 
105 110 
105 116 
105 118 
106 107 
106 108 
106 109 
106 110 
106 117 
106 119 
107 108 
107 109 
107 110 
107 115 
107 118 
108 109 
108 110 
108 119 
108 121 
109 110 
109 114 
109 120 
110 113 
110 121 
111 112 
111 113 
111 114 
111 115 
111 116 
111 117 
111 118 
111 119 
111 120 
111 121 
112 113 
112 114 
112 115 
112 116 
112 117 
112 118 
112 119 
112 120 
112 121 
113 114 
113 115 
113 116 
113 117 
113 118 
113 119 
113 120 
113 121 
114 115 
114 116 
114 117 
114 118 
114 119 
114 120 
114 121 
115 116 
115 117 
115 118 
115 119 
115 120 
115 121 
116 117 
116 118 
116 119 
116 120 
116 121 
117 118 
117 119 
117 120 
117 121 
118 119 
118 120 
118 121 
119 120 
119 121 
120 121 
